NAME: test1912
TYPE: TSP
DIMENSION: 11
EDGE_WEIGHT_TYPE: EUC_2D
NODE_COORD_SECTION
1 25.484006501900435 50.36218244164564
2 8.784926171675755 3.852196609522651
3 28.345023882641485 92.93373319613079
4 79.4938294049699 20.121851884026086
5 86.57512565760427 86.87906279266264
6 90.2650910061616 17.214134022410686
7 13.902883483485585 22.03419328710745
8 94.67272335624307 71.53888885190317
9 70.40176248533393 62.31027458093663
10 23.17657193352527 58.6046436021069
11 4.4886258836014274 11.784521743921205
EOF
